17	4
23	32	31	26	
0	0	0	0	0	3	2	3	4	
5	8	3	5	6	3	7	10	16	
4	8	7	3	6	3	5	6	12	
1	10	6	9	1	3	17	17	17	
9	8	1	7	3	3	11	14	17	
100	10	3	2	3	3	8	9	13	
150	4	4	1	7	1	8	
75	8	5	10	10	3	11	17	17	
225	7	7	4	6	3	17	17	17	
25	4	10	1	1	3	11	17	17	
25	3	2	8	7	3	15	17	17	
250	3	10	1	3	3	17	17	17	
3	3	8	10	7	3	15	17	17	
9	6	3	6	3	3	16	17	17	
10	4	10	1	4	2	17	17	
8	8	1	7	7	3	17	17	17	
0	0	0	0	0	0	
